set ROBOTS :=
  0,
  1,
;
set REQUESTS :=
  0,
  1,
  2,
;
param start_costs default 0 :=
0 0 1
0 1 3
1 0 0
1 1 1
0 2 10
1 2 10
;
param transition_costs default 0 :=
0 1 1
1 0 3
0 2 1
1 2 1
;
param end_costs default 0 :=
0 0 0
1 0 1
0 1 1
1 1 0
2 0 1
2 1 1
;
